\ This file has been generated by DOcplex
\ ENCODING=ISO-8859-1
\Problem name: random_problem.lp

Minimize
 obj: x0 + 8 x1 - 2 x2 - 6 x3 + 10 x4 + 2 x5 + 2 x6 + 9 x7 - 5 x8 - x9 + 9 x10
      + 2 x11 - x12 - 7 x13 - 10 x14 + 2 x15 - 5 x16 + 8 x17 - 9 x18 - x19
      + 10 x20 + [ - 8 x0*x1 - 2 x0*x2 - 12 x0*x3 - 6 x0*x4 - 10 x0*x8
      - 18 x0*x11 - 12 x0*x12 + 20 x0*x15 - 10 x0*x17 - 12 x0*x18 - 20 x1*x4
      + 18 x1*x5 - 14 x1*x6 + 18 x1*x10 + 8 x1*x13 + 12 x1*x15 - 16 x1*x17
      + 20 x1*x18 + 16 x1*x19 + 14 x2*x6 - 14 x2*x8 + 4 x2*x11 - 16 x2*x13
      - 14 x2*x14 + 12 x2*x15 + 6 x2*x16 + 12 x2*x18 - 6 x2*x19 + 8 x3*x5
      - 12 x3*x7 - 6 x3*x8 + 16 x3*x9 + 10 x3*x10 - 16 x3*x14 - 18 x3*x16
      + 18 x3*x18 + 16 x3*x19 - 4 x4*x5 + 2 x4*x6 - 16 x4*x7 + 20 x4*x9
      + 16 x4*x13 + 20 x4*x15 + 12 x4*x16 - 18 x4*x20 - 6 x5*x7 + 12 x5*x10
      + 20 x5*x11 + 16 x5*x12 + 12 x5*x16 + 20 x5*x17 - 6 x5*x18 + 2 x6*x9
      - 20 x6*x10 - 16 x6*x14 + 10 x6*x15 + 2 x6*x17 - 20 x6*x19 + 18 x6*x20
      + 8 x7*x9 + 10 x7*x10 - 8 x7*x11 - 2 x7*x13 + 20 x7*x14 - 20 x7*x18
      - 2 x7*x20 - 10 x8*x11 - 16 x8*x12 + 16 x8*x14 - 2 x8*x15 - 4 x8*x16
      - 20 x8*x19 - 16 x8*x20 + 2 x9*x11 + 2 x9*x13 - 4 x9*x14 - 6 x9*x16
      + 8 x9*x17 + 2 x9*x19 + 14 x10*x11 + 10 x10*x12 - 4 x10*x17 - 18 x10*x18
      - 10 x10*x20 + 8 x11*x12 + 4 x11*x18 + 8 x11*x19 - 6 x12*x13 + 10 x12*x14
      - 2 x12*x15 + 14 x12*x16 + 4 x12*x17 - 16 x13*x14 + 12 x13*x15 + 2 x13*x17
      + 20 x13*x20 + 2 x14*x15 + 16 x14*x17 - 12 x15*x20 - 10 x16*x17
      - 2 x16*x19 + 16 x16*x20 - 20 x18*x19 - 14 x18*x20 + 12 x19*x20 ]/2
Subject To
 c0: x0 + x1 - 2 x3 + 2 x4 + x6 + x9 + 2 x11 + x14 - x18 - x20 = -2
 c1: x1 - 2 x5 - x6 - 2 x8 + 2 x10 + x12 - x14 - x17 - 2 x18 - x20 = -1
 c2: 2 x0 - x4 - 2 x6 - 2 x7 + x8 + 2 x10 - 2 x12 - x14 - x17 - x19 = -1
 c3: x2 - 2 x4 + 2 x5 - 2 x6 - x11 - 2 x12 - x13 - x16 - x17 - 2 x18 = 1

Bounds
 0 <= x0 <= 1
 0 <= x1 <= 1
 0 <= x2 <= 1
 0 <= x3 <= 1
 0 <= x4 <= 1
 0 <= x5 <= 1
 0 <= x6 <= 1
 0 <= x7 <= 1
 0 <= x8 <= 1
 0 <= x9 <= 1
 0 <= x10 <= 1
 0 <= x11 <= 1
 0 <= x12 <= 1
 0 <= x13 <= 1
 0 <= x14 <= 1
 0 <= x15 <= 1
 0 <= x16 <= 1
 0 <= x17 <= 1
 0 <= x18 <= 1
 0 <= x19 <= 1
 0 <= x20 <= 1

Binaries
 x0 x1 x2 x3 x4 x5 x6 x7 x8 x9 x10 x11 x12 x13 x14 x15 x16 x17 x18 x19 x20
End
